param n := 50;
param c := 150;
param w := 
1 150
2 149
3 145
4 145
5 143
6 137
7 135
8 129
9 126
10 123
11 123
12 121
13 120
14 120
15 112
16 109
17 105
18 99
19 99
20 95
21 93
22 91
23 91
24 90
25 89
26 79
27 75
28 74
29 74
30 71
31 69
32 69
33 59
34 52
35 51
36 50
37 47
38 37
39 35
40 33
41 29
42 27
43 26
44 15
45 7
46 5
47 5
48 4
49 4
50 1
;